p td 133 202
1 2
1 30
1 31
2 30
2 31
3 16
3 4
3 15
4 16
4 15
5 88
5 25
5 6
6 88
6 25
7 8
7 130
7 131
8 130
8 131
9 97
9 10
9 77
10 77
10 97
11 127
11 12
11 95
12 127
12 95
13 132
13 14
13 119
14 132
14 119
15 16
17 33
17 18
17 78
18 78
18 33
19 57
19 67
19 20
20 57
20 67
21 50
21 60
21 22
22 50
22 60
23 24
23 32
23 83
24 32
24 83
25 88
26 128
26 27
26 110
27 128
27 110
28 44
28 68
28 29
29 68
29 44
30 31
32 83
33 78
34 114
34 35
34 69
35 114
35 69
36 37
36 94
36 93
37 93
37 94
38 40
38 49
38 43
38 39
39 40
39 49
39 43
40 49
40 43
41 42
41 70
41 111
42 70
42 111
43 49
44 68
45 129
45 46
45 121
46 121
46 129
47 48
47 99
47 63
48 99
48 63
50 60
51 106
51 52
51 86
52 106
52 86
53 90
53 54
53 87
54 90
54 87
55 56
55 113
55 122
56 113
56 122
57 67
58 80
58 59
58 79
59 80
59 79
61 105
61 66
61 62
62 105
62 66
63 99
64 65
64 98
64 100
65 98
65 100
66 105
69 114
70 111
71 72
71 96
71 115
72 96
72 115
73 112
73 89
73 74
74 112
74 89
75 92
75 91
75 76
76 91
76 92
77 97
79 80
81 82
81 117
81 118
82 117
82 118
84 116
84 85
84 109
85 116
85 109
86 106
87 90
89 112
91 92
93 94
95 127
96 115
98 100
101 104
101 102
101 103
102 104
102 103
103 104
107 120
107 108
107 133
108 120
108 133
109 116
110 128
113 122
117 118
119 132
120 133
121 129
123 124
123 125
123 126
124 125
124 126
125 126
130 131
